VALUE 2600464
1 366
6 112
8 355
12 336
16 312
16 17
20 292
24 342
24 25
25 27
28 47
32 51
36 55
38 255
38 39
42 342
46 289
46 47
50 276
50 51
52 53
53 384
53 55
58 59
52 59
62 63
58 63
64 202
66 215
70 161
77 182
80 215
84 168
84 85
88 154
88 89
92 171
95 117
96 131
101 120
112 114
114 117
96 117
120 127
120 122
127 128
88 128
122 129
129 130
130 131
154 156
156 184
89 158
158 161
161 166
166 168
171 175
175 208
182 185
77 184
185 202
59 188
188 198
198 202
85 208
208 210
210 213
213 215
55 252
36 253
252 254
253 255
254 273
273 276
51 284
284 286
286 289
292 295
39 295
295 312
16 325
325 328
28 331
331 332
332 335
328 336
335 337
337 342
355 356
356 361
361 362
27 362
362 366
1 371
6 372
8 373
12 374
17 375
20 376
27 377
28 378
32 379
36 380
42 381
46 382
51 383
58 385
62 386
64 387
66 388
70 389
77 390
80 391
84 392
89 393
92 394
95 395
101 396

